unknown
(model
; cardinality of BoundSet is 3
(declare-sort BoundSet 0)
; rep: @uc_BoundSet_0
; rep: @uc_BoundSet_1
; rep: @uc_BoundSet_2
; cardinality of UnboundSet is 1
(declare-sort UnboundSet 0)
(declare-fun groundTerm_4 () UnboundSet)
(define-fun IsSmall ((BOUND_VARIABLE_415 BoundSet)) Bool true)
(define-fun IsInRedJacket ((BOUND_VARIABLE_415 BoundSet)) Bool true)
(define-fun IsSittingOnShoulders ((BOUND_VARIABLE_422 BoundSet) (BOUND_VARIABLE_423 BoundSet)) Bool true)
(define-fun IsHoldingHead ((BOUND_VARIABLE_422 BoundSet) (BOUND_VARIABLE_423 BoundSet)) Bool true)
(define-fun IsOnHead ((BOUND_VARIABLE_422 BoundSet) (BOUND_VARIABLE_423 BoundSet)) Bool false)
)
sat
(model
; cardinality of BoundSet is 1
(declare-sort BoundSet 0)
; rep: @uc_BoundSet_0
; cardinality of UnboundSet is 1
(declare-sort UnboundSet 0)
(declare-fun groundTerm_6 () UnboundSet)
(define-fun IsSmall ((BOUND_VARIABLE_457 BoundSet)) Bool true)
(define-fun IsInRedJacket ((BOUND_VARIABLE_457 BoundSet)) Bool true)
(define-fun IsSittingOnShoulders ((BOUND_VARIABLE_464 BoundSet) (BOUND_VARIABLE_465 BoundSet)) Bool true)
(define-fun IsHoldingHead ((BOUND_VARIABLE_464 BoundSet) (BOUND_VARIABLE_465 BoundSet)) Bool true)
(define-fun IsOnHead ((BOUND_VARIABLE_464 BoundSet) (BOUND_VARIABLE_465 BoundSet)) Bool false)
)
